evaluation/exploit_mitigation/broken_payloads/tsp/payload_not_broken_count.txt
      6 952
      6 896
      6 894
      6 893
      6 891
      6 888
      6 880
      6 879
      6 878
      6 867
      6 864
      6 848
      6 824
      6 813
      6 784
      6 755
      6 641
      6 626
      6 623
      6 610
      6 573
      6 562
      6 561
      6 554
      6 548
      6 470
      6 407
      6 369
      6 258
      6 255
      6 254
      6 234
      6 233
      6 232
      6 231
      6 213
      6 212
      6 211
      6 208
      6 207
      6 2012
      6 201
      6 1962
      6 1961
      6 196
      6 195
      6 194
      6 193
      6 1922
      6 192
      6 1865
      6 18641
      6 1864
      6 18631
      6 1863
      6 186221
      6 18622
      6 186211
      6 18621
      6 1862
      6 186
      6 1842
      6 1841
      6 184
      6 183
      6 182
      6 181
      6 1802
      6 180
      6 1722
      6 1721
      6 172
      6 171
      6 170
      6 169
      6 1682
      6 168
      6 155
      6 15321452
      6 15321451
      6 15321450
      6 15321449
      6 152
      5 634
      5 560
      5 2021
      5 15321454
      4 559
      4 227
      4 2011
      4 1921
      4 18613
      4 186121
      4 18612
      4 186111
      4 18611
      4 1861
      4 1801
      4 1681
      3 542
      3 501
      3 198
      3 197
      3 191
      3 190
      3 189
      3 188
      3 187
      3 179
      3 178
      3 177
      3 176
      3 175
      3 167
      3 166
      3 165
      3 164
      3 163
      3 156
      3 154
      3 151
      2 958
      2 957
      2 905
      2 902
      2 900
      2 892
      2 877
      2 876
      2 872
      2 871
      2 869
      2 868
      2 863
      2 851
      2 850
      2 846
      2 845
      2 844
      2 831
      2 829
      2 828
      2 827
      2 825
      2 823
      2 822
      2 811
      2 806
      2 804
      2 799
      2 770
      2 765
      2 758
      2 756
      2 752
      2 741
      2 740
      2 685
      2 684
      2 683
      2 621
      2 607
      2 606
      2 604
      2 589
      2 587
      2 585
      2 578
      2 576
      2 575
      2 574
      2 571
      2 565
      2 555
      2 547
      2 546
      2 545
      2 544
      2 543
      2 517
      2 505
      2 491
      2 483
      2 477
      2 476
      2 368
      2 367
      2 365
      2 361
      2 358
      2 353
      2 289
      2 259
      2 256
      2 249
      2 248
      2 239
      2 237
      2 236
      2 230
      2 229
      2 228
      2 226
      2 225
      2 224
      2 223
      2 219
      2 218
      2 206
      2 204
      2 202
      2 1981
      2 1971
      2 1911
      2 1901
      2 1891
      2 1881
      2 1871
      2 1791
      2 1781
      2 1771
      2 1761
      2 1751
      2 1671
      2 1661
      2 1651
      2 1641
      2 1631
      2 162
      2 1592
      2 1561
      2 1541
      2 1511
      2 150
      1 907
      1 890
      1 884
      1 883
      1 882
      1 881
      1 875
      1 861
      1 857
      1 856
      1 852
      1 835
      1 834
      1 833
      1 832
      1 812
      1 798
      1 650
      1 643
      1 642
      1 633
      1 625
      1 624
      1 611
      1 608
      1 593
      1 590
      1 584
      1 566
      1 563
      1 556
      1 552
      1 550
      1 366
      1 355
      1 354
      1 257
      1 242
      1 210
      1 2001
      1 1611
      1 161
      1 159
      1 1581
